\ Model matlab
\ LP format - for model browsing. Use MPS format to capture full model detail.
Minimize
  C0
Subject To
 R0: C1 + C3 = 0.6545443720106838
 R1: C2 + C4 = -0.1774242649296459
 R2: C1 + C5 = 0.8301619258552372
 R3: C2 + C6 = 0.8432994636316025
 R4: C1 + C7 = 0.5476467902871626
 R5: C2 + C8 = 1.4561854595674
 R6: C1 + C9 = -0.8429228502849817
 R7: C2 + C10 = 0.1436140244064957
 R8: C1 + C11 = -0.027997899153864
 R9: C2 + C12 = 0.5461567977754511
 R10: C1 + C13 = 0.6542524731364463
 R11: C2 + C14 = -0.8539416664997931
 R12: C1 + C15 = -0.4775147272706737
 R13: C2 + C16 = 0.7639518173507226
 R14: C1 + C17 = 0.7238256993038158
 R15: C2 + C18 = 0.4943124087651298
 R16: C1 + C19 = 1.019026848558477
 R17: C2 + C20 = 1.138905324599875
 R18: C1 + C21 = -1.158311115319136
 R19: C2 + C22 = -0.2299589353403799
 R20: C1 + C23 = 0.9231968119371254
 R21: C2 + C24 = 0.8166823239644384
 R22: C1 + C25 = 0.2484138548525537
 R23: C2 + C26 = -2.06703786615998
 R24: C1 + C27 = 0.1213076719662054
 R25: C2 + C28 = -1.347710756840751
 R26: C1 + C29 = -0.8112370505203679
 R27: C2 + C30 = 1.668629848862044
 R28: C1 + C31 = -1.257727740283648
 R29: C2 + C32 = 0.7944167952867015
 R30: C1 + C33 = -0.1909979924783788
 R31: C2 + C34 = 0.4003108977951452
 R32: C1 + C35 = 0.3641920526328975
 R33: C2 + C36 = 0.1114118902056723
 R34: C1 + C37 = 0.2495309716910532
 R35: C2 + C38 = 0.3256464998446411
 R36: C1 + C39 = -1.389012251600959
 R37: C2 + C40 = 0.8685117844730887
 R38: C1 + C41 = -0.1911198775442598
 R39: C2 + C42 = -1.408311270996753
 R40: C1 + C43 = -0.4646409294475645
 R41: C2 + C44 = 0.7085287928902485
 R42: C1 + C45 = 0.4667424577027029
 R43: C2 + C46 = -0.3086539120862237
 R44: C1 + C47 = -0.9611103791089759
 R45: C2 + C48 = -1.008224406726775
 R46: C1 + C49 = 0.0531556259771896
 R47: C2 + C50 = -1.431843001452647
 R48: C1 + C51 = 1.639011586172517
 R49: C2 + C52 = -1.660746741429896
 R50: C1 + C53 = 0.7034861508689283
 R51: C2 + C54 = -1.66870550806143
 R52: C1 + C55 = -0.5590765713241123
 R53: C2 + C56 = -0.4307633879721173
 R54: C1 + C57 = -0.5655757586841138
 R55: C2 + C58 = -0.4674911665315926
 R56: C1 + C59 = -0.392239360370082
 R57: C2 + C60 = -2.599142826435294
 R58: C1 + C61 = -1.521305973401227
 R59: C2 + C62 = 0.0460445620819954
 R60: C1 + C63 = 0.6164818093253849
 R61: C2 + C64 = -1.059583525689973
 R62: C1 + C65 = 0.0483443052391322
 R63: C2 + C66 = 1.911400612675708
 R64: C1 + C67 = -0.2006235608419098
 R65: C2 + C68 = -1.762678154844586
 R66: C1 + C69 = -1.029175985149064
 R67: C2 + C70 = -0.00708243796534097
 R68: C1 + C71 = 1.426305188300776
 R69: C2 + C72 = -0.3816585021193693
 R70: C1 + C73 = 0.3129160971965272
 R71: C2 + C74 = 1.167987128657082
 R72: C1 + C75 = 0.1034254308385326
 R73: C2 + C76 = -0.3583350469721618
 R74: C1 + C77 = 0.3307066533119577
 R75: C2 + C78 = 0.0028549995013962
 R76: C1 + C79 = 1.021478045815963
 R77: C2 + C80 = -0.434975984928037
 R78: C1 + C81 = -1.757572609615437
 R79: C2 + C82 = -0.9780994036492368
 R80: C1 + C83 = -0.737313106540519
 R81: C2 + C84 = 1.018785913476096
 R82: C1 + C85 = 1.800145612748472
 R83: C2 + C86 = 0.6347361625592661
 R84: C1 + C87 = 0.6079770586172389
 R85: C2 + C88 = 0.4040989954452158
 R86: C1 + C89 = -0.5807773986719785
 R87: C2 + C90 = -1.782497880158844
 R88: C1 + C91 = -2.500387381888758
 R89: C2 + C92 = 1.056334354139069
 R90: C1 + C93 = -0.7381036412440437
 R91: C2 + C94 = -0.7013266913964749
 R92: C1 + C95 = -1.374671503739042
 R93: C2 + C96 = -0.0054259334192574
 R94: C1 + C97 = -0.6143244146855552
 R95: C2 + C98 = -1.375249474483458
 R96: C1 + C99 = 0.1795775584134917
 R97: C2 + C100 = 0.2986653201157455
 R98: C1 + C101 = 0.6933798593188455
 R99: C2 + C102 = -1.105550567990723
 R100: C1 + C103 = -0.0907158823757046
 R101: C2 + C104 = -2.495314056239835
 R102: C1 + C105 = -0.3581031381770116
 R103: C2 + C106 = -0.1796732422020266
 R104: C1 + C107 = 0.2222719976978706
 R105: C2 + C108 = -0.6456596727170747
 R106: C1 + C109 = 0.7832799290728096
 R107: C2 + C110 = 0.2923931105305011
 R108: C1 + C111 = -0.377720221552464
 R109: C2 + C112 = -2.151695525782417
 R110: C1 + C113 = -0.3182690085595165
 R111: C2 + C114 = 0.2380128258678494
 R112: C1 + C115 = -0.8006162927378975
 R113: C2 + C116 = 1.021835346217234
 R114: C1 + C117 = 1.148920247584795
 R115: C2 + C118 = 1.429155400047915
 R116: C1 + C119 = 0.2075645641892233
 R117: C2 + C120 = -0.1589507864995239
 R118: C1 + C121 = -1.050638832222831
 R119: C2 + C122 = -0.8036052192969853
 R120: C1 + C123 = 1.654210547491501
 R121: C2 + C124 = 1.313630425925845
 R122: C1 + C125 = -0.6416011871114093
 R123: C2 + C126 = -1.883282221699518
 R124: C1 + C127 = 0.1983086616907572
 R125: C2 + C128 = 0.2626694363916865
 R126: C1 + C129 = 3.7271536408154868e-04
 R127: C2 + C130 = -0.2635615825890917
 R128: C1 + C131 = 1.619592367089403
 R129: C2 + C132 = -0.4831309617832342
 R130: C1 + C133 = -0.4021633159865007
 R131: C2 + C134 = -0.9155560534545926
 R132: C1 + C135 = 0.9070268055972761
 R133: C2 + C136 = 0.5001455490052695
 R134: C1 + C137 = 0.5304132035612554
 R135: C2 + C138 = -2.133665774298625
 R136: C1 + C139 = -2.744594838443624
 R137: C2 + C140 = -0.6787581186623725
 R138: C1 + C141 = 0.425127658264044
 R139: C2 + C142 = -1.193729144313691
 R140: C1 + C143 = 0.7517206136988697
 R141: C2 + C144 = 0.2539930726219671
 R142: C1 + C145 = 0.3119442880796742
 R143: C2 + C146 = -1.913172713533892
 R144: C1 + C147 = 0.0786255865593995
 R145: C2 + C148 = -2.507849762895433
 R146: C1 + C149 = -0.7822067149273595
 R147: C2 + C150 = 1.195508245109979
 R148: C1 + C151 = -2.646932140141741
 R149: C2 + C152 = -0.4183136781094787
 R150: C1 + C153 = -0.0866399020670765
 R151: C2 + C154 = -0.983599105819761
 R152: C1 + C155 = 0.5364209623007682
 R153: C2 + C156 = 0.4640349971045363
 R154: C1 + C157 = 0.2641903052299583
 R155: C2 + C158 = -0.3175196564645174
 R156: C1 + C159 = -0.6038937027522295
 R157: C2 + C160 = 1.238496366026966
 R158: C1 + C161 = 0.2612166480376478
 R159: C2 + C162 = -0.0409399141204175
 R160: C1 + C163 = -0.8306317075290559
 R161: C2 + C164 = 0.919259967913855
 R162: C1 + C165 = -0.3802440281112617
 R163: C2 + C166 = -1.946847963121722
 R164: C1 + C167 = 2.613850721389233
 R165: C2 + C168 = 0.0697146976753107
 R166: C1 + C169 = 0.532789120111092
 R167: C2 + C170 = 0.611544217395091
 R168: C1 + C171 = -0.2506550767132857
 R169: C2 + C172 = 0.2262056210026984
 R170: C1 + C173 = 1.838171347181991
 R171: C2 + C174 = 0.1526264068419969
 R172: C1 + C175 = -0.7882447271354123
 R173: C2 + C176 = 0.6746098648219313
 R174: C1 + C177 = 1.021518031592043
 R175: C2 + C178 = 0.060728224467844
 R176: C1 + C179 = -0.9327753736547075
 R177: C2 + C180 = -0.3593252259195613
 R178: C1 + C181 = 0.9687214405801371
 R179: C2 + C182 = 0.1984802286999993
 R180: C1 + C183 = 1.181439562421119
 R181: C2 + C184 = 0.1568358866647465
 R182: C1 + C185 = -0.8947364972921382
 R183: C2 + C186 = 0.5361826161034593
 R184: C1 + C187 = -1.338057484867694
 R185: C2 + C188 = 0.9047316842872591
 R186: C1 + C189 = -1.29841227548087
 R187: C2 + C190 = -0.9259861584650317
 R188: C1 + C191 = 0.2587045734798641
 R189: C2 + C192 = 0.6382219953333183
 R190: C1 + C193 = -0.6890895003083766
 R191: C2 + C194 = 1.075248670598189
 R192: C1 + C195 = -0.1920493997861568
 R193: C2 + C196 = 1.213334567209595
 R194: C1 + C197 = 0.7046026031556681
 R195: C2 + C198 = 0.2232101144975838
 R196: C1 + C199 = 0.0707557689040566
 R197: C2 + C200 = 0.8206647424454577
 R198: C1 + C201 = -0.3798065324921487
 R199: C2 + C202 = 0.9209457393401964
 qc0: [ - C0 ^2 + C3 ^2 + C4 ^2 ] <= 0
 qc1: [ - C0 ^2 + C5 ^2 + C6 ^2 ] <= 0
 qc2: [ - C0 ^2 + C7 ^2 + C8 ^2 ] <= 0
 qc3: [ - C0 ^2 + C9 ^2 + C10 ^2 ] <= 0
 qc4: [ - C0 ^2 + C11 ^2 + C12 ^2 ] <= 0
 qc5: [ - C0 ^2 + C13 ^2 + C14 ^2 ] <= 0
 qc6: [ - C0 ^2 + C15 ^2 + C16 ^2 ] <= 0
 qc7: [ - C0 ^2 + C17 ^2 + C18 ^2 ] <= 0
 qc8: [ - C0 ^2 + C19 ^2 + C20 ^2 ] <= 0
 qc9: [ - C0 ^2 + C21 ^2 + C22 ^2 ] <= 0
 qc10: [ - C0 ^2 + C23 ^2 + C24 ^2 ] <= 0
 qc11: [ - C0 ^2 + C25 ^2 + C26 ^2 ] <= 0
 qc12: [ - C0 ^2 + C27 ^2 + C28 ^2 ] <= 0
 qc13: [ - C0 ^2 + C29 ^2 + C30 ^2 ] <= 0
 qc14: [ - C0 ^2 + C31 ^2 + C32 ^2 ] <= 0
 qc15: [ - C0 ^2 + C33 ^2 + C34 ^2 ] <= 0
 qc16: [ - C0 ^2 + C35 ^2 + C36 ^2 ] <= 0
 qc17: [ - C0 ^2 + C37 ^2 + C38 ^2 ] <= 0
 qc18: [ - C0 ^2 + C39 ^2 + C40 ^2 ] <= 0
 qc19: [ - C0 ^2 + C41 ^2 + C42 ^2 ] <= 0
 qc20: [ - C0 ^2 + C43 ^2 + C44 ^2 ] <= 0
 qc21: [ - C0 ^2 + C45 ^2 + C46 ^2 ] <= 0
 qc22: [ - C0 ^2 + C47 ^2 + C48 ^2 ] <= 0
 qc23: [ - C0 ^2 + C49 ^2 + C50 ^2 ] <= 0
 qc24: [ - C0 ^2 + C51 ^2 + C52 ^2 ] <= 0
 qc25: [ - C0 ^2 + C53 ^2 + C54 ^2 ] <= 0
 qc26: [ - C0 ^2 + C55 ^2 + C56 ^2 ] <= 0
 qc27: [ - C0 ^2 + C57 ^2 + C58 ^2 ] <= 0
 qc28: [ - C0 ^2 + C59 ^2 + C60 ^2 ] <= 0
 qc29: [ - C0 ^2 + C61 ^2 + C62 ^2 ] <= 0
 qc30: [ - C0 ^2 + C63 ^2 + C64 ^2 ] <= 0
 qc31: [ - C0 ^2 + C65 ^2 + C66 ^2 ] <= 0
 qc32: [ - C0 ^2 + C67 ^2 + C68 ^2 ] <= 0
 qc33: [ - C0 ^2 + C69 ^2 + C70 ^2 ] <= 0
 qc34: [ - C0 ^2 + C71 ^2 + C72 ^2 ] <= 0
 qc35: [ - C0 ^2 + C73 ^2 + C74 ^2 ] <= 0
 qc36: [ - C0 ^2 + C75 ^2 + C76 ^2 ] <= 0
 qc37: [ - C0 ^2 + C77 ^2 + C78 ^2 ] <= 0
 qc38: [ - C0 ^2 + C79 ^2 + C80 ^2 ] <= 0
 qc39: [ - C0 ^2 + C81 ^2 + C82 ^2 ] <= 0
 qc40: [ - C0 ^2 + C83 ^2 + C84 ^2 ] <= 0
 qc41: [ - C0 ^2 + C85 ^2 + C86 ^2 ] <= 0
 qc42: [ - C0 ^2 + C87 ^2 + C88 ^2 ] <= 0
 qc43: [ - C0 ^2 + C89 ^2 + C90 ^2 ] <= 0
 qc44: [ - C0 ^2 + C91 ^2 + C92 ^2 ] <= 0
 qc45: [ - C0 ^2 + C93 ^2 + C94 ^2 ] <= 0
 qc46: [ - C0 ^2 + C95 ^2 + C96 ^2 ] <= 0
 qc47: [ - C0 ^2 + C97 ^2 + C98 ^2 ] <= 0
 qc48: [ - C0 ^2 + C99 ^2 + C100 ^2 ] <= 0
 qc49: [ - C0 ^2 + C101 ^2 + C102 ^2 ] <= 0
 qc50: [ - C0 ^2 + C103 ^2 + C104 ^2 ] <= 0
 qc51: [ - C0 ^2 + C105 ^2 + C106 ^2 ] <= 0
 qc52: [ - C0 ^2 + C107 ^2 + C108 ^2 ] <= 0
 qc53: [ - C0 ^2 + C109 ^2 + C110 ^2 ] <= 0
 qc54: [ - C0 ^2 + C111 ^2 + C112 ^2 ] <= 0
 qc55: [ - C0 ^2 + C113 ^2 + C114 ^2 ] <= 0
 qc56: [ - C0 ^2 + C115 ^2 + C116 ^2 ] <= 0
 qc57: [ - C0 ^2 + C117 ^2 + C118 ^2 ] <= 0
 qc58: [ - C0 ^2 + C119 ^2 + C120 ^2 ] <= 0
 qc59: [ - C0 ^2 + C121 ^2 + C122 ^2 ] <= 0
 qc60: [ - C0 ^2 + C123 ^2 + C124 ^2 ] <= 0
 qc61: [ - C0 ^2 + C125 ^2 + C126 ^2 ] <= 0
 qc62: [ - C0 ^2 + C127 ^2 + C128 ^2 ] <= 0
 qc63: [ - C0 ^2 + C129 ^2 + C130 ^2 ] <= 0
 qc64: [ - C0 ^2 + C131 ^2 + C132 ^2 ] <= 0
 qc65: [ - C0 ^2 + C133 ^2 + C134 ^2 ] <= 0
 qc66: [ - C0 ^2 + C135 ^2 + C136 ^2 ] <= 0
 qc67: [ - C0 ^2 + C137 ^2 + C138 ^2 ] <= 0
 qc68: [ - C0 ^2 + C139 ^2 + C140 ^2 ] <= 0
 qc69: [ - C0 ^2 + C141 ^2 + C142 ^2 ] <= 0
 qc70: [ - C0 ^2 + C143 ^2 + C144 ^2 ] <= 0
 qc71: [ - C0 ^2 + C145 ^2 + C146 ^2 ] <= 0
 qc72: [ - C0 ^2 + C147 ^2 + C148 ^2 ] <= 0
 qc73: [ - C0 ^2 + C149 ^2 + C150 ^2 ] <= 0
 qc74: [ - C0 ^2 + C151 ^2 + C152 ^2 ] <= 0
 qc75: [ - C0 ^2 + C153 ^2 + C154 ^2 ] <= 0
 qc76: [ - C0 ^2 + C155 ^2 + C156 ^2 ] <= 0
 qc77: [ - C0 ^2 + C157 ^2 + C158 ^2 ] <= 0
 qc78: [ - C0 ^2 + C159 ^2 + C160 ^2 ] <= 0
 qc79: [ - C0 ^2 + C161 ^2 + C162 ^2 ] <= 0
 qc80: [ - C0 ^2 + C163 ^2 + C164 ^2 ] <= 0
 qc81: [ - C0 ^2 + C165 ^2 + C166 ^2 ] <= 0
 qc82: [ - C0 ^2 + C167 ^2 + C168 ^2 ] <= 0
 qc83: [ - C0 ^2 + C169 ^2 + C170 ^2 ] <= 0
 qc84: [ - C0 ^2 + C171 ^2 + C172 ^2 ] <= 0
 qc85: [ - C0 ^2 + C173 ^2 + C174 ^2 ] <= 0
 qc86: [ - C0 ^2 + C175 ^2 + C176 ^2 ] <= 0
 qc87: [ - C0 ^2 + C177 ^2 + C178 ^2 ] <= 0
 qc88: [ - C0 ^2 + C179 ^2 + C180 ^2 ] <= 0
 qc89: [ - C0 ^2 + C181 ^2 + C182 ^2 ] <= 0
 qc90: [ - C0 ^2 + C183 ^2 + C184 ^2 ] <= 0
 qc91: [ - C0 ^2 + C185 ^2 + C186 ^2 ] <= 0
 qc92: [ - C0 ^2 + C187 ^2 + C188 ^2 ] <= 0
 qc93: [ - C0 ^2 + C189 ^2 + C190 ^2 ] <= 0
 qc94: [ - C0 ^2 + C191 ^2 + C192 ^2 ] <= 0
 qc95: [ - C0 ^2 + C193 ^2 + C194 ^2 ] <= 0
 qc96: [ - C0 ^2 + C195 ^2 + C196 ^2 ] <= 0
 qc97: [ - C0 ^2 + C197 ^2 + C198 ^2 ] <= 0
 qc98: [ - C0 ^2 + C199 ^2 + C200 ^2 ] <= 0
 qc99: [ - C0 ^2 + C201 ^2 + C202 ^2 ] <= 0
Bounds
 C0 <= 1e+08
 -1e+08 <= C1 <= 1e+08
 -1e+08 <= C2 <= 1e+08
 -1e+08 <= C3 <= 1e+08
 -1e+08 <= C4 <= 1e+08
 -1e+08 <= C5 <= 1e+08
 -1e+08 <= C6 <= 1e+08
 -1e+08 <= C7 <= 1e+08
 -1e+08 <= C8 <= 1e+08
 -1e+08 <= C9 <= 1e+08
 -1e+08 <= C10 <= 1e+08
 -1e+08 <= C11 <= 1e+08
 -1e+08 <= C12 <= 1e+08
 -1e+08 <= C13 <= 1e+08
 -1e+08 <= C14 <= 1e+08
 -1e+08 <= C15 <= 1e+08
 -1e+08 <= C16 <= 1e+08
 -1e+08 <= C17 <= 1e+08
 -1e+08 <= C18 <= 1e+08
 -1e+08 <= C19 <= 1e+08
 -1e+08 <= C20 <= 1e+08
 -1e+08 <= C21 <= 1e+08
 -1e+08 <= C22 <= 1e+08
 -1e+08 <= C23 <= 1e+08
 -1e+08 <= C24 <= 1e+08
 -1e+08 <= C25 <= 1e+08
 -1e+08 <= C26 <= 1e+08
 -1e+08 <= C27 <= 1e+08
 -1e+08 <= C28 <= 1e+08
 -1e+08 <= C29 <= 1e+08
 -1e+08 <= C30 <= 1e+08
 -1e+08 <= C31 <= 1e+08
 -1e+08 <= C32 <= 1e+08
 -1e+08 <= C33 <= 1e+08
 -1e+08 <= C34 <= 1e+08
 -1e+08 <= C35 <= 1e+08
 -1e+08 <= C36 <= 1e+08
 -1e+08 <= C37 <= 1e+08
 -1e+08 <= C38 <= 1e+08
 -1e+08 <= C39 <= 1e+08
 -1e+08 <= C40 <= 1e+08
 -1e+08 <= C41 <= 1e+08
 -1e+08 <= C42 <= 1e+08
 -1e+08 <= C43 <= 1e+08
 -1e+08 <= C44 <= 1e+08
 -1e+08 <= C45 <= 1e+08
 -1e+08 <= C46 <= 1e+08
 -1e+08 <= C47 <= 1e+08
 -1e+08 <= C48 <= 1e+08
 -1e+08 <= C49 <= 1e+08
 -1e+08 <= C50 <= 1e+08
 -1e+08 <= C51 <= 1e+08
 -1e+08 <= C52 <= 1e+08
 -1e+08 <= C53 <= 1e+08
 -1e+08 <= C54 <= 1e+08
 -1e+08 <= C55 <= 1e+08
 -1e+08 <= C56 <= 1e+08
 -1e+08 <= C57 <= 1e+08
 -1e+08 <= C58 <= 1e+08
 -1e+08 <= C59 <= 1e+08
 -1e+08 <= C60 <= 1e+08
 -1e+08 <= C61 <= 1e+08
 -1e+08 <= C62 <= 1e+08
 -1e+08 <= C63 <= 1e+08
 -1e+08 <= C64 <= 1e+08
 -1e+08 <= C65 <= 1e+08
 -1e+08 <= C66 <= 1e+08
 -1e+08 <= C67 <= 1e+08
 -1e+08 <= C68 <= 1e+08
 -1e+08 <= C69 <= 1e+08
 -1e+08 <= C70 <= 1e+08
 -1e+08 <= C71 <= 1e+08
 -1e+08 <= C72 <= 1e+08
 -1e+08 <= C73 <= 1e+08
 -1e+08 <= C74 <= 1e+08
 -1e+08 <= C75 <= 1e+08
 -1e+08 <= C76 <= 1e+08
 -1e+08 <= C77 <= 1e+08
 -1e+08 <= C78 <= 1e+08
 -1e+08 <= C79 <= 1e+08
 -1e+08 <= C80 <= 1e+08
 -1e+08 <= C81 <= 1e+08
 -1e+08 <= C82 <= 1e+08
 -1e+08 <= C83 <= 1e+08
 -1e+08 <= C84 <= 1e+08
 -1e+08 <= C85 <= 1e+08
 -1e+08 <= C86 <= 1e+08
 -1e+08 <= C87 <= 1e+08
 -1e+08 <= C88 <= 1e+08
 -1e+08 <= C89 <= 1e+08
 -1e+08 <= C90 <= 1e+08
 -1e+08 <= C91 <= 1e+08
 -1e+08 <= C92 <= 1e+08
 -1e+08 <= C93 <= 1e+08
 -1e+08 <= C94 <= 1e+08
 -1e+08 <= C95 <= 1e+08
 -1e+08 <= C96 <= 1e+08
 -1e+08 <= C97 <= 1e+08
 -1e+08 <= C98 <= 1e+08
 -1e+08 <= C99 <= 1e+08
 -1e+08 <= C100 <= 1e+08
 -1e+08 <= C101 <= 1e+08
 -1e+08 <= C102 <= 1e+08
 -1e+08 <= C103 <= 1e+08
 -1e+08 <= C104 <= 1e+08
 -1e+08 <= C105 <= 1e+08
 -1e+08 <= C106 <= 1e+08
 -1e+08 <= C107 <= 1e+08
 -1e+08 <= C108 <= 1e+08
 -1e+08 <= C109 <= 1e+08
 -1e+08 <= C110 <= 1e+08
 -1e+08 <= C111 <= 1e+08
 -1e+08 <= C112 <= 1e+08
 -1e+08 <= C113 <= 1e+08
 -1e+08 <= C114 <= 1e+08
 -1e+08 <= C115 <= 1e+08
 -1e+08 <= C116 <= 1e+08
 -1e+08 <= C117 <= 1e+08
 -1e+08 <= C118 <= 1e+08
 -1e+08 <= C119 <= 1e+08
 -1e+08 <= C120 <= 1e+08
 -1e+08 <= C121 <= 1e+08
 -1e+08 <= C122 <= 1e+08
 -1e+08 <= C123 <= 1e+08
 -1e+08 <= C124 <= 1e+08
 -1e+08 <= C125 <= 1e+08
 -1e+08 <= C126 <= 1e+08
 -1e+08 <= C127 <= 1e+08
 -1e+08 <= C128 <= 1e+08
 -1e+08 <= C129 <= 1e+08
 -1e+08 <= C130 <= 1e+08
 -1e+08 <= C131 <= 1e+08
 -1e+08 <= C132 <= 1e+08
 -1e+08 <= C133 <= 1e+08
 -1e+08 <= C134 <= 1e+08
 -1e+08 <= C135 <= 1e+08
 -1e+08 <= C136 <= 1e+08
 -1e+08 <= C137 <= 1e+08
 -1e+08 <= C138 <= 1e+08
 -1e+08 <= C139 <= 1e+08
 -1e+08 <= C140 <= 1e+08
 -1e+08 <= C141 <= 1e+08
 -1e+08 <= C142 <= 1e+08
 -1e+08 <= C143 <= 1e+08
 -1e+08 <= C144 <= 1e+08
 -1e+08 <= C145 <= 1e+08
 -1e+08 <= C146 <= 1e+08
 -1e+08 <= C147 <= 1e+08
 -1e+08 <= C148 <= 1e+08
 -1e+08 <= C149 <= 1e+08
 -1e+08 <= C150 <= 1e+08
 -1e+08 <= C151 <= 1e+08
 -1e+08 <= C152 <= 1e+08
 -1e+08 <= C153 <= 1e+08
 -1e+08 <= C154 <= 1e+08
 -1e+08 <= C155 <= 1e+08
 -1e+08 <= C156 <= 1e+08
 -1e+08 <= C157 <= 1e+08
 -1e+08 <= C158 <= 1e+08
 -1e+08 <= C159 <= 1e+08
 -1e+08 <= C160 <= 1e+08
 -1e+08 <= C161 <= 1e+08
 -1e+08 <= C162 <= 1e+08
 -1e+08 <= C163 <= 1e+08
 -1e+08 <= C164 <= 1e+08
 -1e+08 <= C165 <= 1e+08
 -1e+08 <= C166 <= 1e+08
 -1e+08 <= C167 <= 1e+08
 -1e+08 <= C168 <= 1e+08
 -1e+08 <= C169 <= 1e+08
 -1e+08 <= C170 <= 1e+08
 -1e+08 <= C171 <= 1e+08
 -1e+08 <= C172 <= 1e+08
 -1e+08 <= C173 <= 1e+08
 -1e+08 <= C174 <= 1e+08
 -1e+08 <= C175 <= 1e+08
 -1e+08 <= C176 <= 1e+08
 -1e+08 <= C177 <= 1e+08
 -1e+08 <= C178 <= 1e+08
 -1e+08 <= C179 <= 1e+08
 -1e+08 <= C180 <= 1e+08
 -1e+08 <= C181 <= 1e+08
 -1e+08 <= C182 <= 1e+08
 -1e+08 <= C183 <= 1e+08
 -1e+08 <= C184 <= 1e+08
 -1e+08 <= C185 <= 1e+08
 -1e+08 <= C186 <= 1e+08
 -1e+08 <= C187 <= 1e+08
 -1e+08 <= C188 <= 1e+08
 -1e+08 <= C189 <= 1e+08
 -1e+08 <= C190 <= 1e+08
 -1e+08 <= C191 <= 1e+08
 -1e+08 <= C192 <= 1e+08
 -1e+08 <= C193 <= 1e+08
 -1e+08 <= C194 <= 1e+08
 -1e+08 <= C195 <= 1e+08
 -1e+08 <= C196 <= 1e+08
 -1e+08 <= C197 <= 1e+08
 -1e+08 <= C198 <= 1e+08
 -1e+08 <= C199 <= 1e+08
 -1e+08 <= C200 <= 1e+08
 -1e+08 <= C201 <= 1e+08
 -1e+08 <= C202 <= 1e+08
End
